(set-logic QF_UF)
(declare-fun A0 () Bool)
(declare-fun A1 () Bool)
(declare-fun A2 () Bool)
(declare-fun A3 () Bool)
(declare-fun A4 () Bool)
(declare-fun A5 () Bool)
(declare-fun A6 () Bool)
(declare-fun A7 () Bool)
(declare-fun A8 () Bool)
(declare-fun A9 () Bool)
(declare-fun A10 () Bool)
(declare-fun A11 () Bool)
(declare-fun A12 () Bool)
(declare-fun A13 () Bool)
(declare-fun A14 () Bool)
(declare-fun A15 () Bool)
(declare-fun A16 () Bool)
(declare-fun A17 () Bool)
(declare-fun A18 () Bool)
(declare-fun A19 () Bool)
(declare-fun A20 () Bool)
(declare-fun A21 () Bool)
(declare-fun A22 () Bool)
(declare-fun A23 () Bool)
(declare-fun A24 () Bool)
(assert (let ((.def_0 (= A11 A15))) (let ((.def_1 (not A21))) (let ((.def_2 (= .def_1 A4))) (let ((.def_3 (or .def_2 .def_0))) (let ((.def_4 (and A23 A20))) (let ((.def_5 (and A20 A14))) (let ((.def_6 (not .def_5))) (let ((.def_7 (= .def_6 .def_4))) (let ((.def_8 (or .def_7 .def_3))) (let ((.def_9 (not A9))) (let ((.def_10 (or .def_9 A11))) (let ((.def_11 (not .def_10))) (let ((.def_12 (and A5 A14))) (let ((.def_13 (or .def_12 .def_11))) (let ((.def_14 (or A20 A16))) (let ((.def_15 (not A24))) (let ((.def_16 (and .def_15 A24))) (let ((.def_17 (or .def_16 .def_14))) (let ((.def_18 (or .def_17 .def_13))) (let ((.def_19 (or .def_18 .def_8))) (let ((.def_20 (not .def_19))) (let ((.def_21 (not A7))) (let ((.def_22 (and A11 .def_21))) (let ((.def_23 (not .def_22))) (let ((.def_24 (or A15 A23))) (let ((.def_25 (not .def_24))) (let ((.def_26 (and .def_25 .def_23))) (let ((.def_27 (not .def_26))) (let ((.def_28 (not A1))) (let ((.def_29 (= .def_28 A8))) (let ((.def_30 (and .def_1 A21))) (let ((.def_31 (= .def_30 .def_29))) (let ((.def_32 (not .def_31))) (let ((.def_33 (and .def_32 .def_27))) (let ((.def_34 (not A10))) (let ((.def_35 (and A5 .def_34))) (let ((.def_36 (not .def_35))) (let ((.def_37 (not A6))) (let ((.def_38 (and .def_37 A4))) (let ((.def_39 (or .def_38 .def_36))) (let ((.def_40 (not A11))) (let ((.def_41 (= .def_40 .def_9))) (let ((.def_42 (not .def_41))) (let ((.def_43 (not A13))) (let ((.def_44 (not A0))) (let ((.def_45 (and .def_44 .def_43))) (let ((.def_46 (or .def_45 .def_42))) (let ((.def_47 (or .def_46 .def_39))) (let ((.def_48 (or .def_47 .def_33))) (let ((.def_49 (not .def_48))) (let ((.def_50 (or .def_49 .def_20))) (let ((.def_51 (not A8))) (let ((.def_52 (or A11 .def_51))) (let ((.def_53 (not .def_52))) (let ((.def_54 (not A17))) (let ((.def_55 (not A12))) (let ((.def_56 (or .def_55 .def_54))) (let ((.def_57 (not .def_56))) (let ((.def_58 (or .def_57 .def_53))) (let ((.def_59 (not A22))) (let ((.def_60 (and .def_51 .def_59))) (let ((.def_61 (or A7 A21))) (let ((.def_62 (not .def_61))) (let ((.def_63 (= .def_62 .def_60))) (let ((.def_64 (not .def_63))) (let ((.def_65 (or .def_64 .def_58))) (let ((.def_66 (or A23 A17))) (let ((.def_67 (not .def_66))) (let ((.def_68 (and .def_21 A15))) (let ((.def_69 (not .def_68))) (let ((.def_70 (and .def_69 .def_67))) (let ((.def_71 (or A22 .def_44))) (let ((.def_72 (not .def_71))) (let ((.def_73 (not A3))) (let ((.def_74 (or A8 .def_73))) (let ((.def_75 (not .def_74))) (let ((.def_76 (and .def_75 .def_72))) (let ((.def_77 (or .def_76 .def_70))) (let ((.def_78 (or .def_77 .def_65))) (let ((.def_79 (or A6 .def_28))) (let ((.def_80 (or .def_59 .def_59))) (let ((.def_81 (or .def_80 .def_79))) (let ((.def_82 (or .def_15 .def_21))) (let ((.def_83 (and A4 A9))) (let ((.def_84 (and .def_83 .def_82))) (let ((.def_85 (not .def_84))) (let ((.def_86 (and .def_85 .def_81))) (let ((.def_87 (not .def_86))) (let ((.def_88 (not A20))) (let ((.def_89 (and .def_34 .def_88))) (let ((.def_90 (and A0 A3))) (let ((.def_91 (or .def_90 .def_89))) (let ((.def_92 (not .def_91))) (let ((.def_93 (not A16))) (let ((.def_94 (and A19 .def_93))) (let ((.def_95 (not .def_94))) (let ((.def_96 (and A3 .def_28))) (let ((.def_97 (not .def_96))) (let ((.def_98 (and .def_97 .def_95))) (let ((.def_99 (and .def_98 .def_92))) (let ((.def_100 (not .def_99))) (let ((.def_101 (and .def_100 .def_87))) (let ((.def_102 (not .def_101))) (let ((.def_103 (or .def_102 .def_78))) (let ((.def_104 (not .def_103))) (let ((.def_105 (or .def_104 .def_50))) (let ((.def_106 (not .def_105))) (let ((.def_107 (or A20 .def_28))) (let ((.def_108 (not A5))) (let ((.def_109 (= .def_108 A11))) (let ((.def_110 (and .def_109 .def_107))) (let ((.def_111 (not .def_110))) (let ((.def_112 (or .def_93 .def_59))) (let ((.def_113 (not A2))) (let ((.def_114 (or A11 .def_113))) (let ((.def_115 (and .def_114 .def_112))) (let ((.def_116 (not .def_115))) (let ((.def_117 (or .def_116 .def_111))) (let ((.def_118 (and A6 A14))) (let ((.def_119 (or .def_44 A1))) (let ((.def_120 (or .def_119 .def_118))) (let ((.def_121 (and .def_34 A14))) (let ((.def_122 (not .def_121))) (let ((.def_123 (and A1 A23))) (let ((.def_124 (not .def_123))) (let ((.def_125 (and .def_124 .def_122))) (let ((.def_126 (or .def_125 .def_120))) (let ((.def_127 (not .def_126))) (let ((.def_128 (and .def_127 .def_117))) (let ((.def_129 (not A14))) (let ((.def_130 (or A14 .def_129))) (let ((.def_131 (not .def_130))) (let ((.def_132 (or A8 A20))) (let ((.def_133 (and .def_132 .def_131))) (let ((.def_134 (and A23 A16))) (let ((.def_135 (and .def_1 .def_93))) (let ((.def_136 (and .def_135 .def_134))) (let ((.def_137 (and .def_136 .def_133))) (let ((.def_138 (or A0 .def_113))) (let ((.def_139 (not A23))) (let ((.def_140 (or .def_139 .def_44))) (let ((.def_141 (= .def_140 .def_138))) (let ((.def_142 (not .def_141))) (let ((.def_143 (and A18 A14))) (let ((.def_144 (and .def_44 A0))) (let ((.def_145 (or .def_144 .def_143))) (let ((.def_146 (or .def_145 .def_142))) (let ((.def_147 (or .def_146 .def_137))) (let ((.def_148 (not .def_147))) (let ((.def_149 (or .def_148 .def_128))) (let ((.def_150 (and A23 .def_59))) (let ((.def_151 (or .def_37 A8))) (let ((.def_152 (not .def_151))) (let ((.def_153 (or .def_152 .def_150))) (let ((.def_154 (not A19))) (let ((.def_155 (or A18 .def_154))) (let ((.def_156 (not .def_155))) (let ((.def_157 (or A11 A11))) (let ((.def_158 (or .def_157 .def_156))) (let ((.def_159 (not .def_158))) (let ((.def_160 (or .def_159 .def_153))) (let ((.def_161 (not .def_160))) (let ((.def_162 (and A11 A8))) (let ((.def_163 (not .def_162))) (let ((.def_164 (or .def_1 .def_37))) (let ((.def_165 (not .def_164))) (let ((.def_166 (or .def_165 .def_163))) (let ((.def_167 (and A23 .def_93))) (let ((.def_168 (and .def_21 A7))) (let ((.def_169 (not .def_168))) (let ((.def_170 (and .def_169 .def_167))) (let ((.def_171 (not .def_170))) (let ((.def_172 (and .def_171 .def_166))) (let ((.def_173 (and .def_172 .def_161))) (let ((.def_174 (not .def_173))) (let ((.def_175 (and A16 .def_54))) (let ((.def_176 (not .def_175))) (let ((.def_177 (or A6 A14))) (let ((.def_178 (not .def_177))) (let ((.def_179 (or .def_178 .def_176))) (let ((.def_180 (not .def_179))) (let ((.def_181 (or .def_37 .def_34))) (let ((.def_182 (not .def_181))) (let ((.def_183 (or .def_113 A0))) (let ((.def_184 (and .def_183 .def_182))) (let ((.def_185 (not .def_184))) (let ((.def_186 (and .def_185 .def_180))) (let ((.def_187 (and A6 .def_1))) (let ((.def_188 (not .def_187))) (let ((.def_189 (and A7 .def_1))) (let ((.def_190 (not .def_189))) (let ((.def_191 (and .def_190 .def_188))) (let ((.def_192 (not .def_191))) (let ((.def_193 (or .def_113 A9))) (let ((.def_194 (= .def_108 A15))) (let ((.def_195 (not .def_194))) (let ((.def_196 (or .def_195 .def_193))) (let ((.def_197 (not .def_196))) (let ((.def_198 (or .def_197 .def_192))) (let ((.def_199 (and .def_198 .def_186))) (let ((.def_200 (not .def_199))) (let ((.def_201 (and .def_200 .def_174))) (let ((.def_202 (or .def_201 .def_149))) (let ((.def_203 (not .def_202))) (let ((.def_204 (and .def_203 .def_106))) (let ((.def_205 (not .def_204))) (let ((.def_206 (or A9 A14))) (let ((.def_207 (not .def_206))) (let ((.def_208 (and .def_88 A10))) (let ((.def_209 (not .def_208))) (let ((.def_210 (or .def_209 .def_207))) (let ((.def_211 (and .def_51 A24))) (let ((.def_212 (and A18 .def_54))) (let ((.def_213 (not .def_212))) (let ((.def_214 (and .def_213 .def_211))) (let ((.def_215 (not .def_214))) (let ((.def_216 (or .def_215 .def_210))) (let ((.def_217 (not .def_216))) (let ((.def_218 (or A13 A20))) (let ((.def_219 (not .def_218))) (let ((.def_220 (= A11 A19))) (let ((.def_221 (not .def_220))) (let ((.def_222 (or .def_221 .def_219))) (let ((.def_223 (not .def_222))) (let ((.def_224 (and A14 .def_73))) (let ((.def_225 (not .def_224))) (let ((.def_226 (not A18))) (let ((.def_227 (and A6 .def_226))) (let ((.def_228 (not .def_227))) (let ((.def_229 (and .def_228 .def_225))) (let ((.def_230 (not .def_229))) (let ((.def_231 (and .def_230 .def_223))) (let ((.def_232 (and .def_231 .def_217))) (let ((.def_233 (not .def_232))) (let ((.def_234 (and .def_88 A3))) (let ((.def_235 (and .def_139 A6))) (let ((.def_236 (not .def_235))) (let ((.def_237 (or .def_236 .def_234))) (let ((.def_238 (= A20 .def_139))) (let ((.def_239 (not .def_238))) (let ((.def_240 (or A0 A23))) (let ((.def_241 (= .def_240 .def_239))) (let ((.def_242 (not .def_241))) (let ((.def_243 (and .def_242 .def_237))) (let ((.def_244 (not .def_14))) (let ((.def_245 (= .def_139 A14))) (let ((.def_246 (or .def_245 .def_244))) (let ((.def_247 (and .def_129 .def_43))) (let ((.def_248 (or .def_113 A24))) (let ((.def_249 (or .def_248 .def_247))) (let ((.def_250 (not .def_249))) (let ((.def_251 (and .def_250 .def_246))) (let ((.def_252 (not .def_251))) (let ((.def_253 (and .def_252 .def_243))) (let ((.def_254 (and .def_253 .def_233))) (let ((.def_255 (not .def_254))) (let ((.def_256 (and .def_154 .def_113))) (let ((.def_257 (or .def_129 A21))) (let ((.def_258 (not .def_257))) (let ((.def_259 (or .def_258 .def_256))) (let ((.def_260 (not .def_259))) (let ((.def_261 (and A19 A1))) (let ((.def_262 (= A12 A15))) (let ((.def_263 (or .def_262 .def_261))) (let ((.def_264 (not .def_263))) (let ((.def_265 (or .def_264 .def_260))) (let ((.def_266 (and .def_113 .def_129))) (let ((.def_267 (not .def_266))) (let ((.def_268 (and A18 A17))) (let ((.def_269 (not .def_268))) (let ((.def_270 (= .def_269 .def_267))) (let ((.def_271 (not .def_270))) (let ((.def_272 (not .def_45))) (let ((.def_273 (not A4))) (let ((.def_274 (and .def_273 .def_154))) (let ((.def_275 (not .def_274))) (let ((.def_276 (and .def_275 .def_272))) (let ((.def_277 (not .def_276))) (let ((.def_278 (and .def_277 .def_271))) (let ((.def_279 (and .def_278 .def_265))) (let ((.def_280 (not .def_279))) (let ((.def_281 (or A19 A12))) (let ((.def_282 (or A4 A20))) (let ((.def_283 (not .def_282))) (let ((.def_284 (or .def_283 .def_281))) (let ((.def_285 (or .def_54 A20))) (let ((.def_286 (not .def_285))) (let ((.def_287 (and .def_40 A6))) (let ((.def_288 (not .def_287))) (let ((.def_289 (and .def_288 .def_286))) (let ((.def_290 (and .def_289 .def_284))) (let ((.def_291 (not .def_290))) (let ((.def_292 (and A12 A10))) (let ((.def_293 (or A10 .def_44))) (let ((.def_294 (not .def_293))) (let ((.def_295 (= .def_294 .def_292))) (let ((.def_296 (not .def_295))) (let ((.def_297 (= A1 A6))) (let ((.def_298 (not .def_297))) (let ((.def_299 (and A13 A3))) (let ((.def_300 (or .def_299 .def_298))) (let ((.def_301 (or .def_300 .def_296))) (let ((.def_302 (or .def_301 .def_291))) (let ((.def_303 (not .def_302))) (let ((.def_304 (= .def_303 .def_280))) (let ((.def_305 (not .def_304))) (let ((.def_306 (or .def_305 .def_255))) (let ((.def_307 (not .def_306))) (let ((.def_308 (or A21 A3))) (let ((.def_309 (not .def_308))) (let ((.def_310 (or A3 .def_1))) (let ((.def_311 (not .def_310))) (let ((.def_312 (or .def_311 .def_309))) (let ((.def_313 (not .def_312))) (let ((.def_314 (and A24 A15))) (let ((.def_315 (not .def_314))) (let ((.def_316 (or .def_9 .def_73))) (let ((.def_317 (or .def_316 .def_315))) (let ((.def_318 (not .def_317))) (let ((.def_319 (= .def_318 .def_313))) (let ((.def_320 (or A9 .def_73))) (let ((.def_321 (not .def_320))) (let ((.def_322 (or .def_226 .def_226))) (let ((.def_323 (and .def_322 .def_321))) (let ((.def_324 (not .def_323))) (let ((.def_325 (or .def_40 .def_21))) (let ((.def_326 (and .def_108 .def_154))) (let ((.def_327 (not .def_326))) (let ((.def_328 (or .def_327 .def_325))) (let ((.def_329 (not .def_328))) (let ((.def_330 (and .def_329 .def_324))) (let ((.def_331 (not .def_330))) (let ((.def_332 (or .def_331 .def_319))) (let ((.def_333 (not .def_332))) (let ((.def_334 (and A18 .def_21))) (let ((.def_335 (not .def_334))) (let ((.def_336 (or A23 A12))) (let ((.def_337 (and .def_336 .def_335))) (let ((.def_338 (not .def_337))) (let ((.def_339 (and A20 A1))) (let ((.def_340 (not .def_339))) (let ((.def_341 (or .def_1 A8))) (let ((.def_342 (or .def_341 .def_340))) (let ((.def_343 (and .def_342 .def_338))) (let ((.def_344 (not .def_343))) (let ((.def_345 (or A15 .def_40))) (let ((.def_346 (or .def_73 A16))) (let ((.def_347 (not .def_346))) (let ((.def_348 (or .def_347 .def_345))) (let ((.def_349 (= A12 .def_129))) (let ((.def_350 (not .def_349))) (let ((.def_351 (or .def_28 .def_15))) (let ((.def_352 (not .def_351))) (let ((.def_353 (and .def_352 .def_350))) (let ((.def_354 (or .def_353 .def_348))) (let ((.def_355 (= .def_354 .def_344))) (let ((.def_356 (not .def_355))) (let ((.def_357 (or .def_356 .def_333))) (let ((.def_358 (not .def_357))) (let ((.def_359 (or A9 A8))) (let ((.def_360 (and .def_154 .def_108))) (let ((.def_361 (or .def_360 .def_359))) (let ((.def_362 (not .def_361))) (let ((.def_363 (and .def_37 .def_54))) (let ((.def_364 (or .def_55 .def_34))) (let ((.def_365 (not .def_364))) (let ((.def_366 (and .def_365 .def_363))) (let ((.def_367 (not .def_366))) (let ((.def_368 (or .def_367 .def_362))) (let ((.def_369 (not .def_368))) (let ((.def_370 (and A6 A7))) (let ((.def_371 (not .def_370))) (let ((.def_372 (and .def_43 .def_51))) (let ((.def_373 (and .def_372 .def_371))) (let ((.def_374 (not .def_373))) (let ((.def_375 (or .def_21 A21))) (let ((.def_376 (and .def_273 .def_37))) (let ((.def_377 (or .def_376 .def_375))) (let ((.def_378 (or .def_377 .def_374))) (let ((.def_379 (and .def_378 .def_369))) (let ((.def_380 (not A15))) (let ((.def_381 (and .def_380 .def_154))) (let ((.def_382 (not .def_381))) (let ((.def_383 (or A22 .def_154))) (let ((.def_384 (or .def_383 .def_382))) (let ((.def_385 (not .def_384))) (let ((.def_386 (and A19 A16))) (let ((.def_387 (not .def_386))) (let ((.def_388 (or .def_21 A2))) (let ((.def_389 (not .def_388))) (let ((.def_390 (= .def_389 .def_387))) (let ((.def_391 (and .def_390 .def_385))) (let ((.def_392 (and .def_59 .def_129))) (let ((.def_393 (or .def_73 A6))) (let ((.def_394 (or .def_393 .def_392))) (let ((.def_395 (and A2 A15))) (let ((.def_396 (not .def_395))) (let ((.def_397 (or .def_55 .def_73))) (let ((.def_398 (or .def_397 .def_396))) (let ((.def_399 (or .def_398 .def_394))) (let ((.def_400 (or .def_399 .def_391))) (let ((.def_401 (and .def_400 .def_379))) (let ((.def_402 (and .def_401 .def_358))) (let ((.def_403 (not .def_402))) (let ((.def_404 (or .def_403 .def_307))) (let ((.def_405 (and .def_404 .def_205))) (let ((.def_406 (not .def_405))) .def_406))))))))))))))))))))))))))))))))))))))))))))))))))))))))))))))))))))))))))))))))))))))))))))))))))))))))))))))))))))))))))))))))))))))))))))))))))))))))))))))))))))))))))))))))))))))))))))))))))))))))))))))))))))))))))))))))))))))))))))))))))))))))))))))))))))))))))))))))))))))))))))))))))))))))))))))))))))))))))))))))))))))))))))))))))))))))))))))))))))))))))))))))))))))))))))))))))))))))))))))))))))))))
(check-sat)
